50
9593

218 919
855 882
38 569
543 211
580 980
112 49
660 878
708 83
637 666
266 986
310 14
849 321
232 351
678 752
114 940
54 429
625 881
404 744
310 358
185 608
969 312
925 394
746 781
805 209
189 563
274 364
961 44
789 204
230 2
841 266
726 620
396 577
639 738
210 485
987 844
833 458
932 575
537 651
888 917
443 804
63 704
842 323
328 535
720 264
667 568
818 730
341 243
805 936
5 857
95 893
